c 
c U(n,d) graph
c graph gen seed     : 795
c number of vertices : 50
c max number of edges: 1225
c Euclidean distance : 0.600000
c data structure     : dense
c
c           Graph Stats
c number of vertices  : 50
c nonisolated vertices: 50
c number of edges     : 671
c edge density        : 0.547755
c max degree          : 44
c avg degree          : 26.84
c min degree          : 16
p col 50 671
e 1 2
e 1 9
e 1 10
e 1 11
e 1 14
e 1 17
e 1 18
e 1 19
e 1 24
e 1 25
e 1 26
e 1 28
e 1 29
e 1 31
e 1 32
e 1 35
e 1 36
e 1 37
e 1 38
e 1 41
e 1 42
e 1 43
e 1 45
e 1 47
e 1 48
e 2 4
e 2 5
e 2 11
e 2 12
e 2 13
e 2 15
e 2 18
e 2 19
e 2 20
e 2 21
e 2 22
e 2 23
e 2 24
e 2 25
e 2 27
e 2 28
e 2 32
e 2 35
e 2 39
e 2 41
e 2 42
e 2 43
e 2 44
e 2 46
e 2 48
e 2 49
e 3 4
e 3 5
e 3 6
e 3 7
e 3 8
e 3 9
e 3 10
e 3 12
e 3 14
e 3 16
e 3 17
e 3 18
e 3 20
e 3 21
e 3 22
e 3 23
e 3 24
e 3 28
e 3 30
e 3 33
e 3 34
e 3 36
e 3 39
e 3 40
e 3 42
e 3 44
e 3 45
e 3 46
e 3 47
e 3 49
e 3 50
e 4 5
e 4 6
e 4 7
e 4 8
e 4 11
e 4 12
e 4 13
e 4 14
e 4 15
e 4 16
e 4 17
e 4 18
e 4 20
e 4 21
e 4 22
e 4 23
e 4 24
e 4 25
e 4 27
e 4 28
e 4 30
e 4 32
e 4 33
e 4 34
e 4 39
e 4 40
e 4 41
e 4 42
e 4 44
e 4 46
e 4 49
e 4 50
e 5 6
e 5 7
e 5 12
e 5 13
e 5 15
e 5 18
e 5 20
e 5 21
e 5 22
e 5 23
e 5 24
e 5 27
e 5 28
e 5 30
e 5 33
e 5 34
e 5 39
e 5 40
e 5 42
e 5 44
e 5 46
e 5 49
e 5 50
e 6 7
e 6 8
e 6 9
e 6 10
e 6 12
e 6 14
e 6 16
e 6 17
e 6 18
e 6 20
e 6 21
e 6 24
e 6 28
e 6 30
e 6 31
e 6 33
e 6 34
e 6 36
e 6 37
e 6 38
e 6 40
e 6 42
e 6 44
e 6 45
e 6 47
e 6 50
e 7 8
e 7 12
e 7 14
e 7 18
e 7 20
e 7 21
e 7 30
e 7 33
e 7 34
e 7 40
e 7 44
e 7 49
e 7 50
e 8 9
e 8 10
e 8 12
e 8 14
e 8 16
e 8 17
e 8 18
e 8 20
e 8 21
e 8 24
e 8 28
e 8 30
e 8 31
e 8 33
e 8 34
e 8 36
e 8 38
e 8 40
e 8 44
e 8 45
e 8 47
e 8 50
e 9 10
e 9 14
e 9 16
e 9 17
e 9 24
e 9 26
e 9 29
e 9 30
e 9 31
e 9 36
e 9 37
e 9 38
e 9 45
e 9 47
e 10 14
e 10 16
e 10 17
e 10 21
e 10 24
e 10 26
e 10 29
e 10 30
e 10 31
e 10 36
e 10 37
e 10 38
e 10 45
e 10 47
e 11 13
e 11 14
e 11 15
e 11 17
e 11 18
e 11 19
e 11 20
e 11 21
e 11 23
e 11 24
e 11 25
e 11 26
e 11 27
e 11 28
e 11 29
e 11 31
e 11 32
e 11 35
e 11 37
e 11 39
e 11 41
e 11 42
e 11 43
e 11 45
e 11 47
e 11 48
e 12 14
e 12 15
e 12 18
e 12 20
e 12 21
e 12 22
e 12 23
e 12 24
e 12 27
e 12 28
e 12 30
e 12 33
e 12 34
e 12 39
e 12 40
e 12 42
e 12 44
e 12 46
e 12 49
e 12 50
e 13 15
e 13 18
e 13 19
e 13 20
e 13 22
e 13 23
e 13 24
e 13 25
e 13 27
e 13 28
e 13 32
e 13 35
e 13 39
e 13 41
e 13 42
e 13 43
e 13 46
e 13 48
e 13 49
e 14 16
e 14 17
e 14 18
e 14 20
e 14 21
e 14 24
e 14 25
e 14 26
e 14 28
e 14 29
e 14 30
e 14 31
e 14 33
e 14 34
e 14 35
e 14 36
e 14 37
e 14 38
e 14 39
e 14 40
e 14 42
e 14 44
e 14 45
e 14 47
e 14 48
e 14 50
e 15 18
e 15 20
e 15 21
e 15 22
e 15 23
e 15 24
e 15 25
e 15 27
e 15 28
e 15 32
e 15 39
e 15 41
e 15 42
e 15 44
e 15 46
e 15 49
e 16 17
e 16 18
e 16 20
e 16 21
e 16 24
e 16 28
e 16 29
e 16 30
e 16 31
e 16 34
e 16 36
e 16 37
e 16 38
e 16 44
e 16 45
e 16 47
e 16 50
e 17 18
e 17 19
e 17 20
e 17 21
e 17 24
e 17 25
e 17 26
e 17 28
e 17 29
e 17 30
e 17 31
e 17 34
e 17 35
e 17 36
e 17 37
e 17 38
e 17 42
e 17 44
e 17 45
e 17 47
e 17 48
e 18 20
e 18 21
e 18 22
e 18 23
e 18 24
e 18 25
e 18 26
e 18 27
e 18 28
e 18 29
e 18 30
e 18 31
e 18 32
e 18 33
e 18 34
e 18 35
e 18 36
e 18 37
e 18 39
e 18 40
e 18 41
e 18 42
e 18 44
e 18 45
e 18 46
e 18 47
e 18 48
e 18 49
e 18 50
e 19 24
e 19 25
e 19 26
e 19 28
e 19 29
e 19 31
e 19 32
e 19 35
e 19 37
e 19 41
e 19 42
e 19 43
e 19 45
e 19 47
e 19 48
e 20 21
e 20 22
e 20 23
e 20 24
e 20 25
e 20 27
e 20 28
e 20 30
e 20 33
e 20 34
e 20 39
e 20 40
e 20 42
e 20 44
e 20 46
e 20 49
e 20 50
e 21 22
e 21 23
e 21 24
e 21 25
e 21 27
e 21 28
e 21 30
e 21 31
e 21 33
e 21 34
e 21 36
e 21 37
e 21 39
e 21 40
e 21 42
e 21 44
e 21 45
e 21 46
e 21 47
e 21 49
e 21 50
e 22 23
e 22 24
e 22 27
e 22 28
e 22 30
e 22 33
e 22 34
e 22 39
e 22 40
e 22 42
e 22 44
e 22 46
e 22 49
e 22 50
e 23 24
e 23 25
e 23 27
e 23 28
e 23 30
e 23 32
e 23 33
e 23 39
e 23 41
e 23 42
e 23 44
e 23 46
e 23 49
e 24 25
e 24 26
e 24 27
e 24 28
e 24 29
e 24 30
e 24 31
e 24 32
e 24 34
e 24 35
e 24 36
e 24 37
e 24 38
e 24 39
e 24 41
e 24 42
e 24 43
e 24 44
e 24 45
e 24 46
e 24 47
e 24 48
e 25 26
e 25 27
e 25 28
e 25 29
e 25 31
e 25 32
e 25 35
e 25 37
e 25 39
e 25 41
e 25 42
e 25 43
e 25 45
e 25 46
e 25 47
e 25 48
e 26 28
e 26 29
e 26 31
e 26 32
e 26 35
e 26 36
e 26 37
e 26 38
e 26 41
e 26 42
e 26 43
e 26 45
e 26 47
e 26 48
e 27 28
e 27 32
e 27 39
e 27 41
e 27 42
e 27 44
e 27 46
e 27 49
e 28 29
e 28 30
e 28 31
e 28 32
e 28 33
e 28 34
e 28 35
e 28 36
e 28 37
e 28 39
e 28 40
e 28 41
e 28 42
e 28 43
e 28 44
e 28 45
e 28 46
e 28 48
e 28 49
e 28 50
e 29 31
e 29 32
e 29 35
e 29 36
e 29 37
e 29 38
e 29 41
e 29 42
e 29 43
e 29 45
e 29 47
e 29 48
e 30 31
e 30 33
e 30 34
e 30 36
e 30 37
e 30 39
e 30 40
e 30 42
e 30 44
e 30 45
e 30 46
e 30 47
e 30 49
e 30 50
e 31 32
e 31 35
e 31 36
e 31 37
e 31 38
e 31 41
e 31 43
e 31 45
e 31 47
e 31 48
e 32 35
e 32 37
e 32 39
e 32 41
e 32 42
e 32 43
e 32 45
e 32 48
e 33 34
e 33 39
e 33 40
e 33 42
e 33 44
e 33 46
e 33 49
e 33 50
e 34 36
e 34 40
e 34 44
e 34 46
e 34 49
e 34 50
e 35 36
e 35 37
e 35 41
e 35 42
e 35 43
e 35 45
e 35 47
e 35 48
e 36 37
e 36 38
e 36 44
e 36 45
e 36 47
e 37 38
e 37 41
e 37 42
e 37 43
e 37 45
e 37 47
e 37 48
e 38 45
e 38 47
e 39 41
e 39 42
e 39 44
e 39 46
e 39 49
e 39 50
e 40 44
e 40 46
e 40 49
e 40 50
e 41 42
e 41 43
e 41 45
e 41 48
e 42 43
e 42 44
e 42 46
e 42 48
e 42 49
e 43 45
e 43 47
e 43 48
e 44 46
e 44 49
e 44 50
e 45 47
e 45 48
e 46 49
e 46 50
e 47 48
e 49 50
